\ LP format - for model browsing. Use MPS format to capture full model detail.
Maximize
  44.32 z1 + 22.16 z2 + 41 z3 + 11.8 z4 + 25.04 z5 + 22.16 z6 + 19 z7
   + 11 z8 + 18 z9 + 32.52 z10 + 10.36 z11 + 45.92 z12 + 20 z13 + 30.64 z14
   + 40.08 z15 + 36.84 z16 + 34.68 z17 + 41 z18 + 48 z19 + 40 z20
Subject To
 constraint1: 47 z1 + 24 z2 + 41 z3 + 14 z4 + 26 z5 + 23 z6 + 19 z7 + 11 z8
   + 18 z9 + 33 z10 + 13 z11 + 46 z12 + 20 z13 + 32 z14 + 41 z15 + 39 z16
   + 36 z17 + 41 z18 + 48 z19 + 40 z20 <= 200
 constraints2_3_&_8: z3 - z8 = 0
 constraints2_8_&_12: z8 - z12 = 0
 constraints2_9_&_14: z9 - z14 = 0
 constraints2_13_&_17: z13 - z17 = 0
 constraints2_18_&_19: z18 - z19 = 0
 constraints3_1_|_20: z1 + z20 <= 1
 constraints3_3_|_13: z3 + z13 <= 1
 constraints3_3_|_15: z3 + z15 <= 1
 constraints3_3_|_18: z3 + z18 <= 1
 constraints3_3_|_19: z3 + z19 <= 1
 constraints3_3_|_20: z3 + z20 <= 1
 constraints3_5_|_7: z5 + z7 <= 1
 constraints3_6_|_18: z6 + z18 <= 1
 constraints3_6_|_19: z6 + z19 <= 1
 constraints3_9_|_10: z9 + z10 <= 1
 constraints3_9_|_16: z9 + z16 <= 1
 constraints3_12_|_15: z12 + z15 <= 1
 constraints3_13_|_18: z13 + z18 <= 1
 constraints3_13_|_19: z13 + z19 <= 1
 constraints3_15_|_18: z15 + z18 <= 1
 constraints3_15_|_19: z15 + z19 <= 1
 constraints3_18_|_20: z18 + z20 <= 1
Bounds
Binaries
 z1 z2 z3 z4 z5 z6 z7 z8 z9 z10 z11 z12 z13 z14 z15 z16 z17 z18 z19 z20
End
